19	11	20	6	12	13	4	17	2	7
16	9	12	14	17	3	8	15	15	15
7	4	18	20	13	2	17	19	10	10
7	20	3	12	8	10	2	3	20	18
16	2	8	7	11	3	10	8	6	13
8	18	15	7	2	20	2	19	10	13
9	10	20	14	10	16	4	4	6	18
7	9	11	12	15	6	6	1	15	19
19	10	12	11	17	16	11	20	2	15
15	12	10	1	1	4	12	5	2	7
10	3	15	5	6	4	8	12	1	13
2	19	15	16	14	20	19	7	6	3
7	14	1	11	18	6	10	1	10	14
9	17	6	20	2	3	6	20	18	4
11	2	6	10	8	20	6	1	3	2
11	19	14	10	17	4	7	18	14	2
6	12	15	12	3	11	14	14	1	1
5	12	10	4	9	3	20	11	4	20
4	4	17	16	8	7	13	4	2	17
